
  17    4
  10   10   10   10

   0   0   0   0   0   3 2 3 5 
   9  10  10  10  10   4 16 8 6 4 
   9  10  10  10  10   2 16 4 
   5  10  10  10  10   4 15 14 9 7 
   6  10  10  10  10   3 14 9 7 
   1  10  10  10  10   2 13 7 
   2  10  10  10  10   2 11 10 
   2  10  10  10  10   2 13 10 
   6  10  10  10  10   2 13 12 
   2  10  10  10  10   1 12 
   5  10  10  10  10   1 12 
   4  10  10  10  10   1 17
   7  10  10  10  10   1 17
   7  10  10  10  10   1 17
   7  10  10  10  10   1 17
   8  10  10  10  10   1 17
   0   0   0   0   0   0 
